502 0 468 576 555 638 21 385 166 150
307 641 99 898 0 130 821 319 683 228
747 161 35 0 180 908 555 506 99 369
654 66 381 194 824 747 613 468 506 530
381 592 283 814 641 425 471 549 831 737
555 806 0 35 388 228 546 813 760 307
189 235 130 111 884 471 419 912 369 326
66 21 539 153 272 530 292 672 491 448
863 683 502 638 55 605 732 664 539 821
425 732 189 388 292 824 654 592 0 69
